inputs/s-rsa-1.smt2
(declare-fun h10 () (_ BitVec 32))
(assert (bvsge h10 (_ bv1 32)) )
(assert (bvsle h10 (_ bv7 32)) )

(declare-fun h12 () (_ BitVec 32))
(assert (bvsge h12 (_ bv1 32)) )
(assert (bvsle h12 (_ bv7 32)) )

(declare-fun h1 () (_ BitVec 32))
(assert (bvsge h1 (_ bv1 32)) )
(assert (bvsle h1 (_ bv7 32)) )

(declare-fun h11 () (_ BitVec 32))
(assert (bvsge h11 (_ bv1 32)) )
(assert (bvsle h11 (_ bv7 32)) )

(declare-fun h2 () (_ BitVec 32))
(assert (bvsge h2 (_ bv1 32)) )
(assert (bvsle h2 (_ bv7 32)) )

(declare-fun h3 () (_ BitVec 32))
(assert (bvsge h3 (_ bv1 32)) )
(assert (bvsle h3 (_ bv7 32)) )

(declare-fun h13 () (_ BitVec 32))
(assert (bvsge h13 (_ bv1 32)) )
(assert (bvsle h13 (_ bv7 32)) )

(declare-fun h4 () (_ BitVec 32))
(assert (bvsge h4 (_ bv1 32)) )
(assert (bvsle h4 (_ bv7 32)) )

(declare-fun h5 () (_ BitVec 32))
(assert (bvsge h5 (_ bv1 32)) )
(assert (bvsle h5 (_ bv7 32)) )

(declare-fun h6 () (_ BitVec 32))
(assert (bvsge h6 (_ bv1 32)) )
(assert (bvsle h6 (_ bv7 32)) )

(declare-fun h7 () (_ BitVec 32))
(assert (bvsge h7 (_ bv1 32)) )
(assert (bvsle h7 (_ bv7 32)) )

(declare-fun h8 () (_ BitVec 32))
(assert (bvsge h8 (_ bv1 32)) )
(assert (bvsle h8 (_ bv7 32)) )

(declare-fun h9 () (_ BitVec 32))
(assert (bvsge h9 (_ bv1 32)) )
(assert (bvsle h9 (_ bv7 32)) )

(declare-fun l0_0 () (_ BitVec 32))
(assert (bvsge l0_0 (_ bv1 32)) )
(assert (bvsle l0_0 (_ bv1717 32)) )



(define-fun PC1 () Bool  (and (and ( bvsle h1 #x00000007) ( = ( bvsmod h1 #x00000002) #x00000001)) ( bvsle ( bvsdiv h1 #x00000002) #x00000000)) )

(define-fun PC2 () Bool  (and (and (and ( bvsle h2 #x00000007) (not ( = ( bvsmod h2 #x00000002) #x00000001))) ( = ( bvsmod ( bvsdiv h2 #x00000002) #x00000002) #x00000001)) ( bvsle ( bvsdiv ( bvsdiv h2 #x00000002) #x00000002) #x00000000)) )

(define-fun PC3 () Bool  (and (and (and (and (and ( bvsle h3 #x00000007) ( = ( bvsmod h3 #x00000002) #x00000001)) ( bvsgt ( bvsdiv h3 #x00000002) #x00000000)) ( = ( bvsmod ( bvsdiv h3 #x00000002) #x00000002) #x00000001)) ( bvsle ( bvmul l0_0 ( bvsmod ( bvmul ( bvsmod l0_0 #x000006B5) ( bvsmod l0_0 #x000006B5)) #x000006B5)) #x000006B5)) ( bvsle ( bvsdiv ( bvsdiv h3 #x00000002) #x00000002) #x00000000)) )

(define-fun PC4 () Bool  (and (and (and (and (and ( bvsle h4 #x00000007) ( = ( bvsmod h4 #x00000002) #x00000001)) ( bvsgt ( bvsdiv h4 #x00000002) #x00000000)) ( = ( bvsmod ( bvsdiv h4 #x00000002) #x00000002) #x00000001)) ( bvsgt ( bvmul l0_0 ( bvsmod ( bvmul ( bvsmod l0_0 #x000006B5) ( bvsmod l0_0 #x000006B5)) #x000006B5)) #x000006B5)) ( bvsle ( bvsdiv ( bvsdiv h4 #x00000002) #x00000002) #x00000000)) )

(define-fun PC5 () Bool  (and (and ( bvsle h5 #x00000007) (not ( = ( bvsmod h5 #x00000002) #x00000001))) (not ( = ( bvsmod ( bvsdiv h5 #x00000002) #x00000002) #x00000001))) )

(define-fun PC6 () Bool  (and (and (and (and ( bvsle h6 #x00000007) ( = ( bvsmod h6 #x00000002) #x00000001)) ( bvsgt ( bvsdiv h6 #x00000002) #x00000000)) (not ( = ( bvsmod ( bvsdiv h6 #x00000002) #x00000002) #x00000001))) ( bvsle ( bvmul l0_0 ( bvsmod ( bvmul ( bvsmod ( bvmul ( bvsmod l0_0 #x000006B5) ( bvsmod l0_0 #x000006B5)) #x000006B5) ( bvsmod ( bvmul ( bvsmod l0_0 #x000006B5) ( bvsmod l0_0 #x000006B5)) #x000006B5)) #x000006B5)) #x000006B5)) )

(define-fun PC7 () Bool  (and (and (and (and (and (and ( bvsle h7 #x00000007) ( = ( bvsmod h7 #x00000002) #x00000001)) ( bvsgt ( bvsdiv h7 #x00000002) #x00000000)) ( = ( bvsmod ( bvsdiv h7 #x00000002) #x00000002) #x00000001)) ( bvsle ( bvmul l0_0 ( bvsmod ( bvmul ( bvsmod l0_0 #x000006B5) ( bvsmod l0_0 #x000006B5)) #x000006B5)) #x000006B5)) ( bvsgt ( bvsdiv ( bvsdiv h7 #x00000002) #x00000002) #x00000000)) ( bvsle ( bvmul l0_0 ( bvsmod ( bvmul ( bvsmod ( bvmul l0_0 ( bvsmod ( bvmul ( bvsmod l0_0 #x000006B5) ( bvsmod l0_0 #x000006B5)) #x000006B5)) #x000006B5) ( bvsmod ( bvmul l0_0 ( bvsmod ( bvmul ( bvsmod l0_0 #x000006B5) ( bvsmod l0_0 #x000006B5)) #x000006B5)) #x000006B5)) #x000006B5)) #x000006B5)) )

(define-fun PC8 () Bool  (and (and (and (and ( bvsle h8 #x00000007) (not ( = ( bvsmod h8 #x00000002) #x00000001))) ( = ( bvsmod ( bvsdiv h8 #x00000002) #x00000002) #x00000001)) ( bvsgt ( bvsdiv ( bvsdiv h8 #x00000002) #x00000002) #x00000000)) ( bvsle ( bvmul l0_0 ( bvsmod ( bvmul ( bvsmod l0_0 #x000006B5) ( bvsmod l0_0 #x000006B5)) #x000006B5)) #x000006B5)) )

(define-fun PC9 () Bool  (and (and (and (and (and (and ( bvsle h9 #x00000007) ( = ( bvsmod h9 #x00000002) #x00000001)) ( bvsgt ( bvsdiv h9 #x00000002) #x00000000)) ( = ( bvsmod ( bvsdiv h9 #x00000002) #x00000002) #x00000001)) ( bvsle ( bvmul l0_0 ( bvsmod ( bvmul ( bvsmod l0_0 #x000006B5) ( bvsmod l0_0 #x000006B5)) #x000006B5)) #x000006B5)) ( bvsgt ( bvsdiv ( bvsdiv h9 #x00000002) #x00000002) #x00000000)) ( bvsgt ( bvmul l0_0 ( bvsmod ( bvmul ( bvsmod ( bvmul l0_0 ( bvsmod ( bvmul ( bvsmod l0_0 #x000006B5) ( bvsmod l0_0 #x000006B5)) #x000006B5)) #x000006B5) ( bvsmod ( bvmul l0_0 ( bvsmod ( bvmul ( bvsmod l0_0 #x000006B5) ( bvsmod l0_0 #x000006B5)) #x000006B5)) #x000006B5)) #x000006B5)) #x000006B5)) )

(define-fun PC10 () Bool  (and (and (and (and ( bvsle h10 #x00000007) ( = ( bvsmod h10 #x00000002) #x00000001)) ( bvsgt ( bvsdiv h10 #x00000002) #x00000000)) (not ( = ( bvsmod ( bvsdiv h10 #x00000002) #x00000002) #x00000001))) ( bvsgt ( bvmul l0_0 ( bvsmod ( bvmul ( bvsmod ( bvmul ( bvsmod l0_0 #x000006B5) ( bvsmod l0_0 #x000006B5)) #x000006B5) ( bvsmod ( bvmul ( bvsmod l0_0 #x000006B5) ( bvsmod l0_0 #x000006B5)) #x000006B5)) #x000006B5)) #x000006B5)) )

(define-fun PC11 () Bool  (and (and (and (and (and (and ( bvsle h11 #x00000007) ( = ( bvsmod h11 #x00000002) #x00000001)) ( bvsgt ( bvsdiv h11 #x00000002) #x00000000)) ( = ( bvsmod ( bvsdiv h11 #x00000002) #x00000002) #x00000001)) ( bvsgt ( bvmul l0_0 ( bvsmod ( bvmul ( bvsmod l0_0 #x000006B5) ( bvsmod l0_0 #x000006B5)) #x000006B5)) #x000006B5)) ( bvsgt ( bvsdiv ( bvsdiv h11 #x00000002) #x00000002) #x00000000)) ( bvsle ( bvmul l0_0 ( bvsmod ( bvmul ( bvsmod ( bvsub ( bvmul l0_0 ( bvsmod ( bvmul ( bvsmod l0_0 #x000006B5) ( bvsmod l0_0 #x000006B5)) #x000006B5)) #x000006B5) #x000006B5) ( bvsmod ( bvsub ( bvmul l0_0 ( bvsmod ( bvmul ( bvsmod l0_0 #x000006B5) ( bvsmod l0_0 #x000006B5)) #x000006B5)) #x000006B5) #x000006B5)) #x000006B5)) #x000006B5)) )

(define-fun PC12 () Bool  (and (and (and (and ( bvsle h12 #x00000007) (not ( = ( bvsmod h12 #x00000002) #x00000001))) ( = ( bvsmod ( bvsdiv h12 #x00000002) #x00000002) #x00000001)) ( bvsgt ( bvsdiv ( bvsdiv h12 #x00000002) #x00000002) #x00000000)) ( bvsgt ( bvmul l0_0 ( bvsmod ( bvmul ( bvsmod l0_0 #x000006B5) ( bvsmod l0_0 #x000006B5)) #x000006B5)) #x000006B5)) )

(define-fun PC13 () Bool  (and (and (and (and (and (and ( bvsle h13 #x00000007) ( = ( bvsmod h13 #x00000002) #x00000001)) ( bvsgt ( bvsdiv h13 #x00000002) #x00000000)) ( = ( bvsmod ( bvsdiv h13 #x00000002) #x00000002) #x00000001)) ( bvsgt ( bvmul l0_0 ( bvsmod ( bvmul ( bvsmod l0_0 #x000006B5) ( bvsmod l0_0 #x000006B5)) #x000006B5)) #x000006B5)) ( bvsgt ( bvsdiv ( bvsdiv h13 #x00000002) #x00000002) #x00000000)) ( bvsgt ( bvmul l0_0 ( bvsmod ( bvmul ( bvsmod ( bvsub ( bvmul l0_0 ( bvsmod ( bvmul ( bvsmod l0_0 #x000006B5) ( bvsmod l0_0 #x000006B5)) #x000006B5)) #x000006B5) #x000006B5) ( bvsmod ( bvsub ( bvmul l0_0 ( bvsmod ( bvmul ( bvsmod l0_0 #x000006B5) ( bvsmod l0_0 #x000006B5)) #x000006B5)) #x000006B5) #x000006B5)) #x000006B5)) #x000006B5)) )


(assert PC13)

(check-sat)


